<?xml version = "1.0" encoding="UTF-8" standalone="yes"?>
<CPLEXSolution version="1.2">
 <header
   problemName="IloCplex"
   solutionName="p0"
   solutionIndex="-1"
   objectiveValue="-5717512612"
   solutionTypeValue="3"
   solutionTypeString="primal"
   solutionStatusValue="127"
   solutionStatusString="integer feasible solution"
   solutionMethodString="mip"
   primalFeasible="0"
   dualFeasible="0"
   writeLevel="3"/>
 <quality
   epInt="1.0000000000000001e-05"
   epRHS="9.9999999999999995e-07"
   maxIntInfeas="0"
   maxPrimalInfeas="0"
   maxX="1"
   maxSlack="1"/>
 <variables>
  <variable name="w2_1" index="35" value="1"/>
  <variable name="w2_5" index="39" value="1"/>
  <variable name="w2_6" index="40" value="1"/>
  <variable name="w2_7" index="41" value="1"/>
  <variable name="w2_8" index="42" value="1"/>
  <variable name="w2_16" index="50" value="1"/>
  <variable name="w3_1" index="52" value="1"/>
  <variable name="w3_5" index="56" value="1"/>
  <variable name="w3_6" index="57" value="1"/>
  <variable name="w3_7" index="58" value="1"/>
  <variable name="w3_8" index="59" value="1"/>
  <variable name="w3_16" index="67" value="1"/>
  <variable name="w4_1" index="69" value="1"/>
  <variable name="w4_5" index="73" value="1"/>
  <variable name="w4_6" index="74" value="1"/>
  <variable name="w4_7" index="75" value="1"/>
  <variable name="w4_8" index="76" value="1"/>
  <variable name="w4_16" index="84" value="1"/>
  <variable name="w7_1" index="120" value="1"/>
  <variable name="w7_5" index="124" value="1"/>
  <variable name="w7_6" index="125" value="1"/>
  <variable name="w7_7" index="126" value="1"/>
  <variable name="w7_8" index="127" value="1"/>
  <variable name="w7_16" index="135" value="1"/>
  <variable name="w9_1" index="154" value="1"/>
  <variable name="w9_5" index="158" value="1"/>
  <variable name="w9_6" index="159" value="1"/>
  <variable name="w9_7" index="160" value="1"/>
  <variable name="w9_8" index="161" value="1"/>
  <variable name="w9_16" index="169" value="1"/>
  <variable name="w15_1" index="256" value="1"/>
  <variable name="w15_5" index="260" value="1"/>
  <variable name="w15_6" index="261" value="1"/>
  <variable name="w15_7" index="262" value="1"/>
  <variable name="w15_8" index="263" value="1"/>
  <variable name="w15_16" index="271" value="1"/>
  <variable name="w16_1" index="273" value="1"/>
  <variable name="w16_5" index="277" value="1"/>
  <variable name="w16_6" index="278" value="1"/>
  <variable name="w16_7" index="279" value="1"/>
  <variable name="w16_8" index="280" value="1"/>
  <variable name="w16_16" index="288" value="1"/>
  <variable name="w17_1" index="290" value="1"/>
  <variable name="w17_5" index="294" value="1"/>
  <variable name="w17_6" index="295" value="1"/>
  <variable name="w17_7" index="296" value="1"/>
  <variable name="w17_8" index="297" value="1"/>
  <variable name="w17_16" index="305" value="1"/>
  <variable name="k2" index="342" value="1"/>
  <variable name="k3" index="343" value="1"/>
  <variable name="k4" index="344" value="1"/>
  <variable name="k7" index="347" value="1"/>
  <variable name="k9" index="349" value="1"/>
  <variable name="k15" index="355" value="1"/>
  <variable name="k16" index="356" value="1"/>
  <variable name="k17" index="357" value="1"/>
  <variable name="x0_24" index="384" value="1"/>
  <variable name="x1_51" index="511" value="1"/>
  <variable name="x2_46" index="606" value="1"/>
  <variable name="x3_31" index="691" value="1"/>
  <variable name="x4_37" index="797" value="1"/>
  <variable name="x5_40" index="900" value="1"/>
  <variable name="x6_35" index="995" value="1"/>
  <variable name="x7_33" index="1093" value="1"/>
  <variable name="x8_36" index="1196" value="1"/>
  <variable name="x9_44" index="1304" value="1"/>
  <variable name="x10_99" index="1459" value="1"/>
  <variable name="x11_83" index="1543" value="1"/>
  <variable name="x12_47" index="1607" value="1"/>
  <variable name="x13_38" index="1698" value="1"/>
  <variable name="x14_14" index="1774" value="1"/>
  <variable name="x15_66" index="1926" value="1"/>
  <variable name="x16_69" index="2029" value="1"/>
  <variable name="x17_73" index="2133" value="1"/>
  <variable name="x18_68" index="2228" value="1"/>
  <variable name="x19_23" index="2283" value="1"/>
  <variable name="x20_80" index="2440" value="1"/>
  <variable name="x21_77" index="2537" value="1"/>
  <variable name="x22_41" index="2601" value="1"/>
  <variable name="x23_16" index="2676" value="1"/>
  <variable name="x24_58" index="2818" value="1"/>
  <variable name="x25_54" index="2914" value="1"/>
  <variable name="x26_20" index="2980" value="1"/>
  <variable name="x27_76" index="3136" value="1"/>
  <variable name="x28_2" index="3162" value="1"/>
  <variable name="x29_81" index="3341" value="1"/>
  <variable name="x30_79" index="3439" value="1"/>
  <variable name="x31_6" index="3466" value="1"/>
  <variable name="x32_57" index="3617" value="1"/>
  <variable name="x33_9" index="3669" value="1"/>
  <variable name="x34_56" index="3816" value="1"/>
  <variable name="x35_59" index="3919" value="1"/>
  <variable name="x36_60" index="4020" value="1"/>
  <variable name="x37_53" index="4113" value="1"/>
  <variable name="x38_52" index="4212" value="1"/>
  <variable name="x39_55" index="4315" value="1"/>
  <variable name="x40_3" index="4363" value="1"/>
  <variable name="x41_11" index="4471" value="1"/>
  <variable name="x42_5" index="4565" value="1"/>
  <variable name="x43_0" index="4660" value="1"/>
  <variable name="x44_61" index="4821" value="1"/>
  <variable name="x45_1" index="4861" value="1"/>
  <variable name="x46_8" index="4968" value="1"/>
  <variable name="x47_10" index="5070" value="1"/>
  <variable name="x48_75" index="5235" value="1"/>
  <variable name="x49_4" index="5264" value="1"/>
  <variable name="x50_50" index="5410" value="1"/>
  <variable name="x51_12" index="5472" value="1"/>
  <variable name="x52_32" index="5592" value="1"/>
  <variable name="x53_86" index="5746" value="1"/>
  <variable name="x54_43" index="5803" value="1"/>
  <variable name="x55_45" index="5905" value="1"/>
  <variable name="x56_42" index="6002" value="1"/>
  <variable name="x57_22" index="6082" value="1"/>
  <variable name="x58_39" index="6199" value="1"/>
  <variable name="x59_96" index="6356" value="1"/>
  <variable name="x60_71" index="6431" value="1"/>
  <variable name="x61_25" index="6485" value="1"/>
  <variable name="x62_62" index="6622" value="1"/>
  <variable name="x63_63" index="6723" value="1"/>
  <variable name="x64_7" index="6767" value="1"/>
  <variable name="x65_65" index="6925" value="1"/>
  <variable name="x66_15" index="6975" value="1"/>
  <variable name="x67_67" index="7127" value="1"/>
  <variable name="x68_18" index="7178" value="1"/>
  <variable name="x69_19" index="7279" value="1"/>
  <variable name="x70_70" index="7430" value="1"/>
  <variable name="x71_13" index="7473" value="1"/>
  <variable name="x72_72" index="7632" value="1"/>
  <variable name="x73_17" index="7677" value="1"/>
  <variable name="x74_29" index="7789" value="1"/>
  <variable name="x75_28" index="7888" value="1"/>
  <variable name="x76_64" index="8024" value="1"/>
  <variable name="x77_30" index="8090" value="1"/>
  <variable name="x78_49" index="8209" value="1"/>
  <variable name="x79_21" index="8281" value="1"/>
  <variable name="x80_27" index="8387" value="1"/>
  <variable name="x81_26" index="8486" value="1"/>
  <variable name="x82_74" index="8634" value="1"/>
  <variable name="x83_82" index="8742" value="1"/>
  <variable name="x84_84" index="8844" value="1"/>
  <variable name="x85_85" index="8945" value="1"/>
  <variable name="x86_48" index="9008" value="1"/>
  <variable name="x87_87" index="9147" value="1"/>
  <variable name="x88_88" index="9248" value="1"/>
  <variable name="x89_89" index="9349" value="1"/>
  <variable name="x90_90" index="9450" value="1"/>
  <variable name="x91_91" index="9551" value="1"/>
  <variable name="x92_92" index="9652" value="1"/>
  <variable name="x93_93" index="9753" value="1"/>
  <variable name="x94_94" index="9854" value="1"/>
  <variable name="x95_95" index="9955" value="1"/>
  <variable name="x96_34" index="9994" value="1"/>
  <variable name="x97_97" index="10157" value="1"/>
  <variable name="x98_98" index="10258" value="1"/>
  <variable name="x99_78" index="10338" value="1"/>
  <variable name="u1" index="10361" value="1"/>
  <variable name="u5" index="10365" value="1"/>
  <variable name="u6" index="10366" value="1"/>
  <variable name="u7" index="10367" value="1"/>
  <variable name="u8" index="10368" value="1"/>
  <variable name="u16" index="10376" value="1"/>
 </variables>
</CPLEXSolution>
